#######################################
### Exact MIP solver for the HHCRSP ###
#######################################
-- Instance file: new-instances/HHCRSP_75_15_1_1.6_C_RC.txt
-- Max threads: 4
-- Time limit: 999999 seconds
-- Use initial solution: No
Trivial flow violations prevented generating 21636 variables.
Model exported.
Version identifier: 20.1.0.0 | 2020-11-10 | 9bedb6d68
CPXPARAM_Threads                                 4
CPXPARAM_TimeLimit                               999999
Parallel mode: deterministic, using up to 4 threads for concurrent optimization:
 * Starting dual Simplex on 1 thread...
 * Starting Barrier on 3 threads...
Tried aggregator 1 time.
LP Presolve eliminated 3258 rows and 785 columns.
Reduced LP has 23022 rows, 22012 columns, and 237711 nonzeros.
Presolve time = 0.10 sec. (64.52 ticks)
Symmetry aggregator did 21562 additional substitutions.

Iteration log . . .
Iteration:     1   Dual objective     =             0.000000
Iteration:   348   Dual objective     =           178.333333

Dual crossover.
  Dual:  Fixing 222 variables.
      221 DMoves:  Infeasibility  5.50670840e-14  Objective  1.78333333e+02
        0 DMoves:  Infeasibility  3.96349840e-14  Objective  1.78333333e+02
  Dual:  Pushed 11, exchanged 211.
  Primal:  Fixing 62 variables.
       61 PMoves:  Infeasibility  3.88578059e-16  Objective  1.78333333e+02
        0 PMoves:  Infeasibility  6.66133815e-16  Objective  1.78333333e+02
  Primal:  Pushed 26, exchanged 36.

Dual simplex solved model.


Solution status from MIP model:
-- Processing time: 0.218 sec.
-- Memory used: 85.5859 MB
-- Best bound: inf
-- Obj value: 178.333
-- Gap: inf%
-- Total distance: 535
-- Total tardiness: 0
-- Largest tardiness: 0
